c clasp version 2.1.1
c Reading from pb_300_01.cnf
c Solving...
s SATISFIABLE

c Models        : 1+    
c Time          : 8.720s (Solving: 7.19s 1st Model: 7.19s Unsat: 0.00s)
c CPU Time      : 8.690s
c Choices       : 159401
c Conflicts     : 18861
c Restarts      : 25     (Average: 754.44 Last: 3178)

c Variables     : 390990 (Eliminated: 123009 Frozen:    0)
c Constraints   : 472801 (Binary: 64.0% Ternary: 35.0% Other:  1.0%)
c Lemmas        : 18861  (Binary:  0.6% Ternary:  0.7% Other: 98.8%)
c   Conflict    : 18861  (Average Length: 87.1) 
c   Loop        : 0      (Average Length: 0.0) 
c   Other       : 0      (Average Length: 0.0)
c   Deleted     : 4895  
